(set-info :smt-lib-version 2.6)
(set-logic QF_S)
(set-info :source |
Generated by: Murphy Berzish, Mitja Kulczynski, Federico Mora, Florin Manea, Joel Day, Dirk Nowotka, Vijay Ganesh, Zhengyang Lu
Generated on: 2020-10-01
Description: Translated from a collection of real-world regex queries, AutomataArk, collected by Loris D’Antoni and Fang Wang: https://github.com/lorisdanto/automatark
Application: Evaluate solvers on real-world regex queries
Target solver: Z3str3RE, CVC4, OSTRICH, Z3seq, Z3str3, Z3-Trau
Publications: Berzish, M., Kulczynski, M., Mora, F., Manea, F., Day, J. D., Nowotka, D., & Ganesh, V. (2021, July). An SMT solver for regular expressions and linear arithmetic over string length. In CAV 2021.
|)
(set-info :license "https://creativecommons.org/licenses/by/4.0/")
(set-info :category "industrial")
(set-info :status sat)

(declare-const X String)
(assert (str.in_re X (re.++ ((_ re.loop 2 2) (re.range "A" "Z")) ((_ re.loop 6 6) (re.range "0" "9")) ((_ re.loop 1 1) (re.union (re.range "A" "D") (str.to_re "F") (str.to_re "M"))) (str.to_re "\u{a}"))))
(assert (not (str.in_re X (re.++ (str.to_re "/filename=") (re.* (re.comp (str.to_re "\u{a}"))) (str.to_re ".bcl/i\u{a}")))))
(assert (not (str.in_re X (re.++ (str.to_re "/STOR fp") ((_ re.loop 44 44) (re.union (re.range "0" "9") (re.range "A" "F"))) (str.to_re ".bin/\u{a}")))))
(assert (not (str.in_re X (re.++ (str.to_re "FO") (re.opt (re.union (str.to_re " ") (str.to_re "\u{9}") (str.to_re "\u{a}") (str.to_re "\u{c}") (str.to_re "\u{d}"))) ((_ re.loop 3 3) (re.range "0" "9")) (str.to_re "\u{a}")))))
(assert (not (str.in_re X (str.to_re "thesearchresltLoggerHost:BetaHWAEHost:is\u{a}"))))
(check-sat)

(exit)
